17203.2
129 126 142 143 180 111 162 58 155 171 181 179 164 170 146 89 80 148 186 192 97 138 23 51 37 35 54 71 92 47 149 113 177 154 182 147 30 112 24 86 153 79 122 72 84 73 60 8 191 2 74 7 36 194 133 31 160 145 131 10 81 157 176 25 130 102 17 174 108 114 22 0 26 106 119 135 48 90 62 85 63 78 45 103 137 87 185 109 3 159 144 1 41 151 118 101 52 76 4 183 124 14 168 187 175 33 75 40 166 46 9 193 140 116 188 128 190 70 96 94 64 12 21 178 104 99 165 28 77 93 34 61 88 18 13 184 66 38 42 50 98 107 134 49 16 105 158 139 136 117 125 121 100 19 6 167 32 161 150 141 5 68 44 27 65 82 56 120 132 152 110 169 189 163 123 127 156 15 53 39 29 91 83 67 55 69 20 115 43 95 57 173 11 172 59 
